data;


param d:= 100;
param r:=5;
param p:=0.880000;
param M:=1000;
param U:=
         1         1       -2.198420e-01
         2         1       -3.923313e-01
         3         1        1.053860e-01
         4         1        1.527009e-01
         5         1        8.217907e-02
         6         1        1.083944e-01
         7         1        2.180630e-01
         8         1       -2.361119e+00
         9         1       -1.247582e+00
        10         1       -2.570301e+00
        11         1        2.248269e+00
        12         1       -4.113429e-01
        13         1        2.665317e-01
        14         1        1.138746e+00
        15         1       -1.120231e+00
        16         1        2.843343e-01
        17         1        6.456315e-02
        18         1        1.933953e-01
        19         1        8.302624e-03
        20         1       -2.129718e-01
        21         1        1.111977e+00
        22         1        4.729116e-01
        23         1       -6.917582e-01
        24         1       -4.926508e-01
        25         1        1.391155e+00
        26         1       -5.975265e-02
        27         1       -2.646561e-01
        28         1        8.305511e-01
        29         1        5.784814e-02
        30         1        1.698883e+00
        31         1        5.713635e-01
        32         1       -1.620036e+00
        33         1        6.070079e-01
        34         1        9.323481e-01
        35         1        7.223379e-01
        36         1       -2.888918e-01
        37         1        6.116989e-01
        38         1       -2.966123e-01
        39         1        9.030043e-01
        40         1       -1.223003e+00
        41         1       -2.407005e+00
        42         1       -1.692014e-01
        43         1        6.330184e-01
        44         1        1.070793e+00
        45         1        3.051914e-01
        46         1        8.075373e-01
        47         1        7.897334e-01
        48         1       -1.515021e+00
        49         1       -1.499724e+00
        50         1        2.272127e+00
        51         1       -5.443286e-01
        52         1       -1.428488e+00
        53         1        9.937796e-01
        54         1       -1.874389e+00
        55         1       -1.274718e+00
        56         1       -2.229925e+00
        57         1       -9.022667e-01
        58         1        9.966684e-01
        59         1        1.199395e+00
        60         1        7.690626e-01
        61         1       -4.356766e-01
        62         1       -5.725083e-01
        63         1       -1.498469e+00
        64         1       -6.022796e-01
        65         1        8.888040e-01
        66         1        1.156313e+00
        67         1        4.246025e-01
        68         1       -1.504843e+00
        69         1        1.124518e+00
        70         1        6.604213e-01
        71         1       -5.629262e-02
        72         1       -7.815199e-02
        73         1        5.666133e-01
        74         1        2.936751e-01
        75         1       -8.331372e-01
        76         1        1.387756e+00
        77         1        7.112757e-01
        78         1       -7.653037e-01
        79         1        5.218727e-01
        80         1        2.851950e-01
        81         1        1.383930e+00
        82         1       -1.773879e+00
        83         1        1.019227e+00
        84         1        1.504738e+00
        85         1       -1.703349e+00
        86         1        8.473001e-01
        87         1        5.448589e-01
        88         1        8.230221e-01
        89         1        2.220030e-01
        90         1       -1.281856e+00
        91         1       -3.977709e-01
        92         1        1.005065e-01
        93         1       -1.128546e+00
        94         1       -1.144350e+00
        95         1       -2.465997e-01
        96         1       -5.156509e-01
        97         1       -1.221332e-01
        98         1       -6.647485e-01
        99         1        1.012942e+00
       100         1       -2.117563e+00
         1         2        8.373904e-01
         2         2       -7.082310e-02
         3         2       -7.198098e-01
         4         2        7.920325e-01
         5         2       -1.905970e-01
         6         2        1.126660e-01
         7         2       -3.040218e-01
         8         2       -1.017240e+00
         9         2        1.272414e+00
        10         2       -1.604248e+00
        11         2        1.644131e+00
        12         2        3.802958e-01
        13         2        8.333792e-01
        14         2       -8.035545e-01
        15         2        7.133585e-01
        16         2        1.784244e-01
        17         2        7.533967e-02
        18         2        1.025630e+00
        19         2       -8.542147e-01
        20         2       -2.024075e+00
        21         2       -1.214036e+00
        22         2       -6.266527e-01
        23         2        2.953412e-02
        24         2       -1.553401e+00
        25         2        3.871534e-01
        26         2       -2.675916e-01
        27         2       -1.337884e+00
        28         2        5.135541e-01
        29         2       -4.318803e-01
        30         2        3.825975e-01
        31         2       -8.203356e-01
        32         2        1.185109e-01
        33         2        4.369807e-01
        34         2       -6.190697e-01
        35         2        3.856747e-02
        36         2       -7.787450e-01
        37         2       -3.396205e-02
        38         2        1.409974e+00
        39         2       -1.488294e-01
        40         2       -3.810088e-01
        41         2       -3.097539e-02
        42         2        9.267814e-02
        43         2        5.837439e-01
        44         2       -3.022779e-01
        45         2        4.056417e-01
        46         2        8.032799e-02
        47         2        1.297565e+00
        48         2       -3.714655e-01
        49         2       -7.590385e-01
        50         2       -4.065484e-02
        51         2        1.651396e+00
        52         2        1.236486e+00
        53         2        1.146660e+00
        54         2        3.772742e-01
        55         2       -1.891449e-01
        56         2        1.248411e+00
        57         2        1.263818e+00
        58         2        1.548821e+00
        59         2       -1.133004e+00
        60         2        1.024485e+00
        61         2        8.148915e-01
        62         2        3.620385e-01
        63         2        4.422148e-01
        64         2        1.989790e+00
        65         2       -2.538034e-01
        66         2       -1.347425e+00
        67         2       -8.656020e-01
        68         2       -9.453911e-01
        69         2       -4.211325e-01
        70         2        8.537382e-02
        71         2        2.504176e+00
        72         2        1.938570e-01
        73         2        6.803580e-01
        74         2       -7.560191e-01
        75         2       -4.476517e-01
        76         2       -1.599781e+00
        77         2        7.085721e-01
        78         2        5.390156e-01
        79         2       -4.520123e-01
        80         2        1.337743e+00
        81         2       -5.453339e-01
        82         2        4.109637e-01
        83         2        1.000794e+00
        84         2       -7.949869e-01
        85         2        2.844028e-01
        86         2        5.428129e-01
        87         2       -3.351317e-01
        88         2        1.181602e+00
        89         2       -1.484193e+00
        90         2       -1.294232e-01
        91         2       -9.254510e-01
        92         2        9.086129e-01
        93         2        7.059739e-01
        94         2        9.631390e-01
        95         2        4.950132e-01
        96         2       -2.173518e-01
        97         2       -6.288376e-01
        98         2        6.297375e-01
        99         2       -8.832815e-01
       100         2       -8.034795e-01
         1         3        9.573555e-01
         2         3        4.457522e-01
         3         3       -4.323633e-01
         4         3        5.841746e-01
         5         3       -3.738370e-01
         6         3        9.311589e-01
         7         3       -4.576159e-01
         8         3        5.543409e-01
         9         3        1.394652e+00
        10         3       -2.320460e-01
        11         3       -1.115520e+00
        12         3       -5.084410e-01
        13         3       -9.862725e-01
        14         3        5.279016e-01
        15         3        1.748868e+00
        16         3       -5.517873e-01
        17         3       -4.104403e-02
        18         3        5.063755e-01
        19         3       -9.614453e-01
        20         3       -1.232361e+00
        21         3        5.266742e-01
        22         3       -3.307342e-03
        23         3        7.447010e-01
        24         3       -5.981159e-01
        25         3       -1.625101e-01
        26         3       -1.109379e+00
        27         3       -2.067197e-02
        28         3        9.645521e-01
        29         3        1.197108e-01
        30         3       -2.495463e-01
        31         3       -1.605141e+00
        32         3        9.399880e-01
        33         3       -3.705822e-02
        34         3        1.740615e+00
        35         3       -2.729231e-01
        36         3       -2.850365e-01
        37         3       -5.739889e-01
        38         3       -3.503110e-01
        39         3        3.760355e-01
        40         3       -5.412365e-01
        41         3       -9.882617e-01
        42         3        2.364139e-01
        43         3       -1.981830e+00
        44         3       -2.392328e-01
        45         3        1.441686e+00
        46         3        1.526044e+00
        47         3       -4.739937e-01
        48         3        3.428038e-01
        49         3        7.380179e-01
        50         3        4.586161e-01
        51         3       -4.794532e-02
        52         3       -8.490827e-01
        53         3        1.247118e+00
        54         3       -3.976947e-01
        55         3       -1.004724e+00
        56         3       -1.371489e+00
        57         3       -3.717092e-01
        58         3        5.461417e-01
        59         3       -2.482916e-01
        60         3        5.199213e-01
        61         3        2.173322e-01
        62         3        8.442581e-02
        63         3       -1.135326e-01
        64         3       -8.602290e-01
        65         3        5.377530e-01
        66         3        5.461852e-01
        67         3        1.171298e+00
        68         3       -6.023066e-01
        69         3        9.191000e-01
        70         3        7.028388e-01
        71         3        8.247431e-01
        72         3       -1.232377e+00
        73         3        1.007211e+00
        74         3       -2.479496e-01
        75         3        6.441798e-01
        76         3       -1.305458e-01
        77         3       -2.032465e-01
        78         3       -2.882758e-01
        79         3        7.792852e-01
        80         3        3.980015e-01
        81         3       -2.926520e-02
        82         3       -1.316452e+00
        83         3       -2.091637e+00
        84         3        6.125993e-02
        85         3        5.819557e-01
        86         3        8.812822e-01
        87         3       -2.196250e+00
        88         3        3.811394e-01
        89         3        1.199982e+00
        90         3       -9.238284e-01
        91         3       -5.674569e-01
        92         3       -1.605318e+00
        93         3        9.716899e-01
        94         3       -2.803626e+00
        95         3       -5.115139e-01
        96         3        1.470277e+00
        97         3        1.212874e-01
        98         3       -2.724210e-01
        99         3       -7.381514e-01
       100         3       -1.198260e+00
         1         4        1.501666e+00
         2         4       -2.006906e+00
         3         4        7.313214e-02
         4         4        1.582590e+00
         5         4        1.386329e+00
         6         4       -2.033135e+00
         7         4        8.002275e-01
         8         4       -8.224859e-01
         9         4        2.965672e-01
        10         4       -1.627723e+00
        11         4       -1.240807e+00
        12         4       -4.340282e-01
        13         4        3.591842e-01
        14         4       -6.463255e-01
        15         4       -1.076270e+00
        16         4        2.065883e+00
        17         4        1.366113e-01
        18         4       -5.174410e-01
        19         4       -6.414286e-01
        20         4        4.081231e-01
        21         4       -1.732858e+00
        22         4        1.852466e+00
        23         4       -1.540522e+00
        24         4        3.127429e-01
        25         4       -6.760917e-01
        26         4        3.593207e+00
        27         4        6.840762e-02
        28         4        1.307894e+00
        29         4       -3.417339e-01
        30         4       -7.468251e-01
        31         4        1.038632e+00
        32         4       -1.348215e+00
        33         4       -2.123629e-01
        34         4       -3.273591e+00
        35         4       -4.381741e-02
        36         4       -8.450775e-01
        37         4        1.575522e+00
        38         4        4.538538e-01
        39         4       -4.882732e-01
        40         4       -1.276131e+00
        41         4        1.600923e+00
        42         4       -1.844128e-01
        43         4       -1.098111e+00
        44         4       -1.659248e+00
        45         4        1.028186e+00
        46         4       -3.474954e-01
        47         4        1.147957e-01
        48         4       -2.655514e-01
        49         4       -1.566162e+00
        50         4        1.404515e+00
        51         4       -7.447054e-01
        52         4       -1.710617e+00
        53         4       -1.806525e-01
        54         4        5.657941e-01
        55         4        9.375353e-01
        56         4        6.057038e-01
        57         4       -3.782833e-01
        58         4        1.060897e+00
        59         4        8.914810e-02
        60         4        1.075429e-01
        61         4        1.079684e+00
        62         4       -7.605293e-03
        63         4        5.382629e-01
        64         4       -4.330924e-01
        65         4       -1.841269e-01
        66         4       -1.117647e-01
        67         4        1.010494e+00
        68         4        5.332983e-01
        69         4        1.503248e+00
        70         4       -1.268353e-01
        71         4       -6.603825e-01
        72         4       -9.837727e-01
        73         4       -2.166636e+00
        74         4        6.392510e-01
        75         4       -7.520114e-01
        76         4       -5.815741e-01
        77         4       -6.113718e-01
        78         4       -9.071921e-01
        79         4        3.942621e-01
        80         4        7.565659e-01
        81         4       -2.940859e+00
        82         4        1.220658e+00
        83         4        8.555062e-01
        84         4        5.578159e-03
        85         4        1.355354e+00
        86         4       -1.160080e+00
        87         4        1.249574e+00
        88         4       -2.734265e+00
        89         4        6.025747e-01
        90         4        1.880531e+00
        91         4       -1.149292e+00
        92         4       -7.528495e-01
        93         4        2.319271e-02
        94         4       -9.593795e-01
        95         4        6.213480e-01
        96         4       -8.161593e-01
        97         4        9.424081e-01
        98         4       -4.956239e-02
        99         4        7.873480e-01
       100         4       -5.885916e-02
         1         5       -1.283979e-01
         2         5       -4.830640e-01
         3         5       -1.028726e+00
         4         5        5.840485e-01
         5         5       -1.653543e-01
         6         5       -1.623981e+00
         7         5        1.000018e+00
         8         5       -1.554237e+00
         9         5       -3.602468e-01
        10         5       -8.353091e-01
        11         5       -2.194252e-01
        12         5       -2.232359e-02
        13         5        1.122429e+00
        14         5        1.137550e+00
        15         5        3.181058e-01
        16         5        1.035722e+00
        17         5       -5.684605e-01
        18         5       -1.312888e+00
        19         5       -3.563932e-01
        20         5        4.838925e-01
        21         5       -2.689968e-01
        22         5        1.454005e+00
        23         5        7.071218e-01
        24         5       -3.911850e-01
        25         5       -4.255301e-01
        26         5       -8.801688e-01
        27         5        2.980256e-02
        28         5       -6.410798e-01
        29         5       -1.311287e-01
        30         5        3.342929e-02
        31         5       -1.082666e+00
        32         5       -9.234993e-01
        33         5        1.292508e+00
        34         5       -1.674297e+00
        35         5       -4.945648e-01
        36         5       -1.022478e+00
        37         5        6.007671e-01
        38         5       -2.422968e+00
        39         5        5.120323e-02
        40         5        2.070529e+00
        41         5       -3.859747e-01
        42         5       -8.153070e-01
        43         5       -2.251812e+00
        44         5       -6.341096e-01
        45         5        7.387465e-01
        46         5        1.144273e+00
        47         5        1.093628e+00
        48         5        3.159275e-01
        49         5       -1.092858e+00
        50         5        1.414754e-01
        51         5       -8.536286e-02
        52         5        8.479376e-01
        53         5        2.318579e-01
        54         5       -5.582832e-01
        55         5        1.695019e-01
        56         5        1.730012e+00
        57         5        3.808041e-01
        58         5        3.617824e-01
        59         5       -1.472079e+00
        60         5        1.278260e+00
        61         5        2.132461e+00
        62         5       -6.008341e-01
        63         5       -8.596542e-01
        64         5       -3.022646e+00
        65         5       -4.745984e-01
        66         5       -2.808402e-01
        67         5        6.997683e-01
        68         5       -3.396811e+00
        69         5       -1.382269e+00
        70         5       -1.613009e+00
        71         5        1.411053e+00
        72         5       -1.403442e+00
        73         5        1.068570e-01
        74         5       -6.527078e-01
        75         5        1.371581e+00
        76         5        6.706614e-01
        77         5       -3.665521e-01
        78         5        2.942966e-01
        79         5       -3.277590e-01
        80         5       -1.319826e+00
        81         5        6.607874e-01
        82         5       -1.884194e+00
        83         5        1.601150e+00
        84         5        1.385773e+00
        85         5       -1.420519e+00
        86         5        9.115288e-01
        87         5       -1.145738e+00
        88         5        7.275942e-01
        89         5        1.166253e-01
        90         5       -4.596904e-01
        91         5       -1.179983e+00
        92         5       -2.539450e-01
        93         5        1.752918e+00
        94         5        1.350212e-01
        95         5       -3.468741e-01
        96         5        1.761528e+00
        97         5        4.465832e-01
        98         5       -1.294647e+00
        99         5       -1.649188e+00
       100         5       -1.932379e+00
;

param theta:=
    1        9.878112e-01
    2       -1.713393e-01
    3        1.009205e+00
    4       -5.831891e-01
    5       -1.189276e+00
;
param X_true:=
    1       -1.178106e-01
    2        1.821164e+00
    3        9.721450e-01
    4       -1.013418e+00
    5       -8.755892e-01
    6        4.143937e+00
    7       -1.849504e+00
    8        7.280308e-01
    9        2.129734e-01
   10       -5.555217e-01
   11        1.799334e+00
   12       -7.056080e-01
   13       -2.419378e+00
   14        8.186545e-01
   15        7.876708e-01
   16       -2.740279e+00
   17        6.048049e-01
   18        2.387449e+00
   19       -1.708187e-02
   20       -1.919913e+00
   21        3.169304e+00
   22       -2.238913e+00
   23        1.188965e-01
   24       -5.437460e-01
   25        2.043445e+00
   26       -2.180242e+00
   27       -1.303330e-01
   28        1.705581e+00
   29        6.078913e-01
   30        1.757809e+00
   31       -2.345729e-01
   32        1.211866e+00
   33       -9.265298e-01
   34        6.684759e+00
   35        1.047302e+00
   36        1.270410e+00
   37       -1.601977e+00
   38        1.728779e+00
   39        1.520275e+00
   40       -3.406423e+00
   41       -3.843898e+00
   42        1.133220e+00
   43        1.843120e+00
   44        2.589329e+00
   45        2.089381e-01
   46        1.166532e+00
   47       -1.288246e+00
   48       -1.308015e+00
   49        1.608144e+00
   50        1.725916e+00
   51       -3.347391e-01
   52       -2.490502e+00
   53        1.872925e+00
   54       -1.983617e+00
   55       -2.989185e+00
   56       -6.211891e+00
   57       -1.715907e+00
   58        2.211397e-01
   59        2.827387e+00
   60       -4.737266e-01
   61       -3.515867e+00
   62        1.762747e-01
   63       -9.619471e-01
   64        2.043201e+00
   65        2.134594e+00
   66        2.324546e+00
   67        3.273014e-01
   68        1.796906e+00
   69        2.875902e+00
   70        3.339300e+00
   71       -9.456690e-01
   72        8.896658e-01
   73        2.596158e+00
   74        5.706468e-01
   75       -1.287227e+00
   76        1.053138e+00
   77        1.169443e+00
   78       -9.603594e-01
   79        1.536901e+00
   80        1.581955e+00
   81        2.360753e+00
   82       -1.622959e+00
   83       -3.679612e+00
   84        3.205186e-02
   85       -2.445946e-01
   86        1.225827e+00
   87       -9.865484e-01
   88        1.725368e+00
   89        1.196610e+00
   90       -2.725660e+00
   91        1.266573e+00
   92       -9.356784e-01
   93       -2.352503e+00
   94       -3.726675e+00
   95       -7.955014e-01
   96       -6.051589e-01
   97       -9.705262e-01
   98        5.289723e-01
   99        1.908910e+00
  100       -8.308786e-01
;
param X:=
    1       -4.214681e-01
    2       -5.284701e-01
    3        1.690541e+00
    4       -1.013418e+00
    5       -4.443030e-01
    6        1.281381e+00
    7        1.752405e+00
    8        1.229527e-01
    9       -1.521153e+00
   10        8.628414e-01
   11       -9.239526e-01
   12       -7.056080e-01
   13       -4.685940e-01
   14        8.186545e-01
   15       -7.701693e-02
   16        4.721395e-01
   17        8.058698e-01
   18       -1.652863e-01
   19        1.715601e-01
   20       -2.590377e-02
   21       -1.132309e+00
   22       -2.643054e-01
   23       -5.086667e-01
   24       -5.437460e-01
   25       -1.129888e+00
   26       -6.103221e-01
   27        1.196214e+00
   28       -4.588394e-01
   29        3.553151e-01
   30       -1.470400e+00
   31        1.720751e+00
   32       -3.005904e-01
   33       -9.265298e-01
   34        9.826995e-01
   35       -3.225066e-01
   36        1.270410e+00
   37        9.855723e-02
   38       -5.740665e-01
   39        6.965912e-01
   40        9.549239e-03
   41       -1.283317e+00
   42       -8.203348e-02
   43       -6.168571e-01
   44       -8.688056e-01
   45       -2.771959e-01
   46       -5.124610e-01
   47        2.439240e-01
   48        8.547189e-01
   49       -4.723193e-01
   50        2.681353e-01
   51       -3.347391e-01
   52        7.443161e-01
   53       -2.491236e-01
   54       -4.527099e-01
   55        3.137678e-02
   56       -4.611759e-01
   57        1.387719e-01
   58       -6.698630e-01
   59        1.264727e-01
   60        7.950427e-01
   61       -1.464231e-01
   62        1.762747e-01
   63        1.513868e+00
   64        1.167285e+00
   65        6.731701e-02
   66        2.324546e+00
   67       -9.194912e-01
   68       -6.566811e-01
   69       -1.184265e+00
   70       -2.197728e+00
   71       -9.662111e-03
   72        9.373842e-01
   73        8.829144e-01
   74       -9.676330e-01
   75        2.491510e-01
   76       -8.282087e-01
   77        1.169443e+00
   78       -9.603594e-01
   79       -6.813180e-02
   80       -4.914785e-02
   81       -9.351248e-01
   82       -8.095551e-01
   83       -9.039782e-01
   84        5.180582e-01
   85       -1.464569e+00
   86        4.243698e-02
   87       -5.354658e-01
   88       -1.745803e-01
   89       -1.650982e-01
   90       -6.800204e-01
   91        1.727956e+00
   92       -1.212960e+00
   93       -2.452169e-01
   94       -1.288081e+00
   95       -7.955014e-01
   96        7.751049e-01
   97       -8.053000e-01
   98       -5.570082e-01
   99        1.056050e+00
  100       -1.088551e-01
;
param outliervec:=
    1    1
    2    1
    3    1
    4    0
    5    1
    6    1
    7    1
    8    1
    9    1
   10    1
   11    1
   12    0
   13    1
   14    0
   15    1
   16    1
   17    1
   18    1
   19    1
   20    1
   21    1
   22    1
   23    1
   24    0
   25    1
   26    1
   27    1
   28    1
   29    1
   30    1
   31    1
   32    1
   33    0
   34    1
   35    1
   36    0
   37    1
   38    1
   39    1
   40    1
   41    1
   42    1
   43    1
   44    1
   45    1
   46    1
   47    1
   48    1
   49    1
   50    1
   51    0
   52    1
   53    1
   54    1
   55    1
   56    1
   57    1
   58    1
   59    1
   60    1
   61    1
   62    0
   63    1
   64    1
   65    1
   66    0
   67    1
   68    1
   69    1
   70    1
   71    1
   72    1
   73    1
   74    1
   75    1
   76    1
   77    0
   78    0
   79    1
   80    1
   81    1
   82    1
   83    1
   84    1
   85    1
   86    1
   87    1
   88    1
   89    1
   90    1
   91    1
   92    1
   93    1
   94    1
   95    0
   96    1
   97    1
   98    1
   99    1
  100    1
;